<number of tasks>
45

<cycle time>
56

<task times>
1 9
2 9
3 10
4 10
5 17
6 17
7 13
8 13
9 20
10 20
11 10
12 11
13 6
14 22
15 11
16 19
17 12
18 3
19 7
20 4
21 55
22 14
23 27
24 29
25 26
26 6
27 5
28 24
29 4
30 5
31 7
32 4
33 15
34 3
35 7
36 9
37 4
38 7
39 5
40 4
41 21
42 12
43 6
44 5
45 5

<precedence relations>
1,3
1,7
2,4
2,8
3,5
4,6
5,9
6,10
7,9
7,14
8,10
8,14
9,41
10,41
11,13
12,13
12,37
13,14
13,15
14,17
14,25
14,29
14,30
14,31
14,32
15,16
15,18
15,23
15,24
16,19
17,26
17,27
18,19
19,20
19,33
20,21
21,22
22,28
23,33
24,33
25,26
26,38
27,28
27,33
28,38
29,41
30,41
31,41
32,41
33,34
33,35
33,36
34,38
35,40
36,38
37,43
38,40
39,41
40,41
41,42
42,44
42,45

<setup times forward>
1,3:2
1,4:2
1,7:3
1,8:3
1,10:3
1,16:3
1,18:3
1,19:3
1,20:2
1,21:1
1,22:2
1,23:1
1,24:1
1,39:3
1,43:2
2,3:2
2,4:2
2,5:2
2,7:3
2,8:3
2,9:2
2,16:3
2,18:3
2,19:3
2,20:2
2,21:1
2,22:2
2,23:1
2,24:1
2,39:3
2,43:2
3,2:2
3,6:2
3,7:5
3,8:5
3,10:1
3,11:2
3,12:2
3,13:2
3,15:2
3,16:5
3,18:5
3,19:5
3,21:3
3,23:3
3,24:3
3,25:2
3,26:4
3,28:1
3,29:4
3,30:4
3,31:4
3,32:4
3,34:4
3,35:1
3,36:2
3,37:2
3,39:1
3,43:4
4,1:2
4,6:2
4,7:5
4,8:5
4,9:4
4,11:2
4,12:2
4,13:2
4,15:2
4,16:5
4,18:5
4,19:5
4,21:3
4,23:3
4,24:3
4,25:2
4,26:4
4,28:1
4,29:4
4,30:4
4,31:4
4,32:4
4,34:4
4,35:1
4,36:2
4,37:2
4,39:1
4,43:4
5,2:2
5,6:2
5,7:5
5,8:5
5,9:4
5,10:1
5,11:2
5,12:2
5,13:2
5,15:2
5,16:5
5,18:5
5,19:5
5,21:3
5,23:3
5,24:3
5,25:2
5,26:4
5,28:1
5,29:4
5,30:4
5,31:4
5,32:4
5,34:4
5,35:1
5,36:2
5,37:2
5,39:1
5,43:4
6,3:2
6,5:2
6,7:3
6,8:3
6,9:2
6,10:3
6,14:2
6,16:3
6,17:2
6,18:3
6,19:3
6,20:2
6,21:1
6,22:2
6,23:1
6,24:1
6,26:2
6,27:2
6,28:3
6,29:2
6,30:2
6,31:2
6,32:2
6,33:2
6,34:2
6,35:3
6,38:2
6,39:3
6,40:2
6,43:2
7,2:3
7,3:5
7,4:5
7,5:5
7,6:3
7,9:1
7,10:6
7,11:3
7,12:3
7,13:3
7,14:5
7,15:3
7,20:5
7,21:2
7,22:5
7,23:2
7,24:2
7,37:3
7,39:6
7,43:1
8,1:3
8,3:5
8,4:5
8,5:5
8,6:3
8,9:1
8,10:6
8,11:3
8,12:3
8,13:3
8,14:5
8,15:3
8,20:5
8,21:2
8,22:5
8,23:2
8,24:2
8,37:3
8,39:6
8,43:1
9,2:2
9,4:4
9,6:2
9,8:1
9,10:5
9,11:2
9,12:2
9,13:2
9,14:4
9,15:2
9,16:1
9,17:4
9,18:1
9,19:1
9,20:4
9,21:1
9,22:4
9,23:1
9,24:1
9,25:2
9,27:4
9,28:5
9,33:4
9,35:5
9,36:2
9,37:2
9,38:4
9,39:5
9,40:4
9,41:4
10,1:3
10,3:1
10,5:1
10,7:6
10,9:5
10,11:3
10,12:3
10,13:3
10,14:1
10,15:3
10,16:6
10,17:1
10,18:6
10,19:6
10,20:1
10,21:4
10,22:1
10,23:4
10,24:4
10,25:3
10,26:5
10,27:1
10,29:5
10,30:5
10,31:5
10,32:5
10,33:1
10,34:5
10,36:3
10,37:3
10,38:1
10,40:1
10,41:1
10,43:5
11,3:2
11,4:2
11,5:2
11,7:3
11,8:3
11,9:2
11,10:3
11,39:3
11,43:2
12,3:2
12,4:2
12,5:2
12,7:3
12,8:3
12,9:2
12,10:3
12,39:3
13,3:2
13,4:2
13,5:2
13,7:3
13,8:3
13,9:2
13,10:3
13,14:2
13,39:3
13,43:2
14,6:2
14,9:4
14,10:1
14,15:2
14,16:5
14,18:5
14,19:5
14,21:3
14,23:3
14,24:3
14,25:2
14,29:4
14,30:4
14,31:4
14,32:4
14,37:2
14,39:1
14,43:4
15,3:2
15,4:2
15,5:2
15,7:3
15,8:3
15,9:2
15,10:3
15,14:2
15,16:3
15,17:2
15,18:3
15,23:1
15,24:1
15,26:2
15,27:2
15,29:2
15,30:2
15,31:2
15,32:2
15,39:3
15,43:2
16,1:3
16,2:3
16,3:5
16,4:5
16,5:5
16,6:3
16,9:1
16,10:6
16,14:5
16,17:5
16,23:2
16,24:2
16,25:3
16,26:1
16,27:5
16,29:1
16,30:1
16,31:1
16,32:1
16,37:3
16,39:6
16,43:1
17,6:2
17,9:4
17,10:1
17,15:2
17,16:5
17,18:5
17,19:5
17,21:3
17,23:3
17,24:3
17,25:2
17,26:4
17,29:4
17,30:4
17,31:4
17,32:4
17,37:2
17,39:1
17,43:4
18,1:3
18,2:3
18,3:5
18,4:5
18,5:5
18,6:3
18,9:1
18,10:6
18,14:5
18,17:5
18,23:2
18,24:2
18,25:3
18,26:1
18,27:5
18,29:1
18,30:1
18,31:1
18,32:1
18,37:3
18,39:6
18,43:1
19,1:3
19,2:3
19,3:5
19,4:5
19,5:5
19,6:3
19,9:1
19,10:6
19,14:5
19,17:5
19,20:5
19,23:2
19,24:2
19,25:3
19,26:1
19,27:5
19,29:1
19,30:1
19,31:1
19,32:1
19,33:5
19,37:3
19,39:6
19,43:1
20,1:2
20,2:2
20,6:2
20,7:5
20,8:5
20,9:4
20,10:1
20,21:3
20,23:3
20,24:3
20,25:2
20,26:4
20,29:4
20,30:4
20,31:4
20,32:4
20,34:4
20,35:1
20,36:2
20,37:2
20,39:1
20,43:4
21,1:1
21,2:1
21,3:3
21,4:3
21,5:3
21,6:1
21,7:2
21,8:2
21,9:1
21,10:4
21,14:3
21,17:3
21,22:3
21,25:1
21,26:1
21,27:3
21,29:1
21,30:1
21,31:1
21,32:1
21,33:3
21,34:1
21,35:4
21,36:1
21,37:1
21,39:4
21,43:1
22,1:2
22,2:2
22,6:2
22,7:5
22,8:5
22,9:4
22,10:1
22,23:3
22,24:3
22,25:2
22,26:4
22,28:1
22,29:4
22,30:4
22,31:4
22,32:4
22,34:4
22,35:1
22,36:2
22,37:2
22,39:1
22,43:4
23,1:1
23,2:1
23,3:3
23,4:3
23,5:3
23,6:1
23,7:2
23,8:2
23,9:1
23,10:4
23,14:3
23,16:2
23,17:3
23,18:2
23,19:2
23,20:3
23,22:3
23,25:1
23,26:1
23,27:3
23,28:4
23,29:1
23,30:1
23,31:1
23,32:1
23,33:3
23,37:1
23,39:4
23,43:1
24,1:1
24,2:1
24,3:3
24,4:3
24,5:3
24,6:1
24,7:2
24,8:2
24,9:1
24,10:4
24,14:3
24,16:2
24,17:3
24,18:2
24,19:2
24,20:3
24,22:3
24,25:1
24,26:1
24,27:3
24,28:4
24,29:1
24,30:1
24,31:1
24,32:1
24,33:3
24,37:1
24,39:4
24,43:1
25,3:2
25,4:2
25,5:2
25,9:2
25,10:3
25,16:3
25,17:2
25,18:3
25,19:3
25,20:2
25,21:1
25,22:2
25,23:1
25,24:1
25,26:2
25,27:2
25,28:3
25,29:2
25,30:2
25,31:2
25,32:2
25,33:2
25,34:2
25,35:3
25,39:3
25,43:2
26,3:4
26,4:4
26,5:4
26,6:2
26,10:5
26,15:2
26,16:1
26,18:1
26,19:1
26,20:4
26,21:1
26,22:4
26,23:1
26,24:1
26,27:4
26,28:5
26,33:4
26,35:5
26,36:2
26,37:2
26,38:4
26,39:5
27,6:2
27,9:4
27,10:1
27,15:2
27,16:5
27,18:5
27,19:5
27,21:3
27,23:3
27,24:3
27,25:2
27,26:4
27,28:1
27,29:4
27,30:4
27,31:4
27,32:4
27,37:2
27,39:1
27,43:4
28,3:1
28,4:1
28,5:1
28,6:3
28,9:5
28,23:4
28,24:4
28,25:3
28,26:5
28,29:5
28,30:5
28,31:5
28,32:5
28,33:1
28,34:5
28,36:3
28,37:3
28,38:1
28,43:5
29,3:4
29,4:4
29,5:4
29,6:2
29,10:5
29,15:2
29,16:1
29,17:4
29,18:1
29,19:1
29,20:4
29,21:1
29,22:4
29,23:1
29,24:1
29,25:2
29,27:4
29,28:5
29,33:4
29,35:5
29,36:2
29,37:2
29,38:4
29,39:5
29,40:4
29,41:4
30,3:4
30,4:4
30,5:4
30,6:2
30,10:5
30,15:2
30,16:1
30,17:4
30,18:1
30,19:1
30,20:4
30,21:1
30,22:4
30,23:1
30,24:1
30,25:2
30,27:4
30,28:5
30,33:4
30,35:5
30,36:2
30,37:2
30,38:4
30,39:5
30,40:4
30,41:4
31,3:4
31,4:4
31,5:4
31,6:2
31,10:5
31,15:2
31,16:1
31,17:4
31,18:1
31,19:1
31,20:4
31,21:1
31,22:4
31,23:1
31,24:1
31,25:2
31,27:4
31,28:5
31,33:4
31,35:5
31,36:2
31,37:2
31,38:4
31,39:5
31,40:4
31,41:4
32,3:4
32,4:4
32,5:4
32,6:2
32,10:5
32,15:2
32,16:1
32,17:4
32,18:1
32,19:1
32,20:4
32,21:1
32,22:4
32,23:1
32,24:1
32,25:2
32,27:4
32,28:5
32,33:4
32,35:5
32,36:2
32,37:2
32,38:4
32,39:5
32,40:4
32,41:4
33,6:2
33,9:4
33,10:1
33,21:3
33,25:2
33,26:4
33,28:1
33,29:4
33,30:4
33,31:4
33,32:4
33,34:4
33,35:1
33,36:2
33,37:2
33,39:1
33,43:4
34,3:4
34,4:4
34,5:4
34,6:2
34,10:5
34,20:4
34,21:1
34,22:4
34,25:2
34,28:5
34,35:5
34,36:2
34,37:2
34,38:4
34,39:5
35,3:1
35,4:1
35,5:1
35,6:3
35,9:5
35,20:1
35,21:4
35,22:1
35,25:3
35,26:5
35,29:5
35,30:5
35,31:5
35,32:5
35,34:5
35,36:3
35,37:3
35,38:1
35,40:1
35,43:5
36,3:2
36,4:2
36,5:2
36,9:2
36,10:3
36,20:2
36,21:1
36,22:2
36,26:2
36,28:3
36,29:2
36,30:2
36,31:2
36,32:2
36,34:2
36,35:3
36,38:2
36,39:3
36,43:2
37,3:2
37,4:2
37,5:2
37,7:3
37,8:3
37,9:2
37,10:3
37,14:2
37,16:3
37,17:2
37,18:3
37,19:3
37,20:2
37,21:1
37,22:2
37,23:1
37,24:1
37,26:2
37,27:2
37,28:3
37,29:2
37,30:2
37,31:2
37,32:2
37,33:2
37,34:2
37,35:3
37,38:2
37,39:3
37,40:2
37,41:2
37,42:2
37,43:2
37,44:2
37,45:2
38,6:2
38,9:4
38,10:1
38,29:4
38,30:4
38,31:4
38,32:4
38,35:1
38,37:2
38,39:1
38,43:4
39,1:3
39,2:3
39,3:1
39,4:1
39,5:1
39,6:3
39,7:6
39,8:6
39,9:5
39,11:3
39,12:3
39,13:3
39,14:1
39,15:3
39,16:6
39,17:1
39,18:6
39,19:6
39,20:1
39,21:4
39,22:1
39,23:4
39,24:4
39,25:3
39,26:5
39,27:1
39,29:5
39,30:5
39,31:5
39,32:5
39,33:1
39,34:5
39,36:3
39,37:3
39,38:1
39,40:1
39,41:1
39,43:5
40,6:2
40,9:4
40,10:1
40,29:4
40,30:4
40,31:4
40,32:4
40,37:2
40,39:1
40,43:4
41,37:2
41,43:4
42,37:2
42,43:4
43,1:2
43,2:2
43,3:4
43,4:4
43,5:4
43,6:2
43,7:1
43,8:1
43,10:5
43,11:2
43,13:2
43,14:4
43,15:2
43,16:1
43,17:4
43,18:1
43,19:1
43,20:4
43,21:1
43,22:4
43,23:1
43,24:1
43,25:2
43,27:4
43,28:5
43,33:4
43,35:5
43,36:2
43,38:4
43,39:5
43,40:4
43,41:4
43,42:4
43,44:4
43,45:4
44,37:2
44,43:4
45,37:2
45,43:4

<setup times backward>
1,4:2
1,10:3
1,20:2
1,22:2
1,39:3
2,3:2
2,5:2
2,20:2
2,22:2
2,39:3
3,10:1
3,28:1
3,35:1
3,39:1
4,28:1
4,35:1
4,39:1
5,10:1
5,28:1
5,35:1
5,39:1
6,3:2
6,4:2
6,5:2
6,14:2
6,17:2
6,20:2
6,22:2
6,27:2
6,28:3
6,33:2
6,35:3
6,38:2
6,39:3
6,40:2
7,1:3
7,2:3
7,3:5
7,4:5
7,5:5
7,6:3
7,10:6
7,11:3
7,12:3
7,13:3
7,15:3
7,20:5
7,21:2
7,22:5
7,23:2
7,24:2
7,37:3
7,39:6
7,43:1
8,1:3
8,2:3
8,3:5
8,4:5
8,5:5
8,6:3
8,9:1
8,11:3
8,12:3
8,13:3
8,15:3
8,20:5
8,21:2
8,22:5
8,23:2
8,24:2
8,37:3
8,39:6
8,43:1
9,1:2
9,2:2
9,3:4
9,4:4
9,5:4
9,6:2
9,10:5
9,11:2
9,12:2
9,13:2
9,14:4
9,15:2
9,17:4
9,20:4
9,21:1
9,22:4
9,23:1
9,24:1
9,25:2
9,27:4
9,28:5
9,33:4
9,35:5
9,36:2
9,37:2
9,38:4
9,39:5
9,40:4
11,3:2
11,4:2
11,5:2
11,10:3
11,39:3
12,3:2
12,4:2
12,5:2
12,10:3
12,39:3
13,3:2
13,4:2
13,5:2
13,10:3
13,39:3
14,10:1
14,39:1
15,3:2
15,4:2
15,5:2
15,10:3
15,14:2
15,17:2
15,27:2
15,39:3
16,1:3
16,2:3
16,3:5
16,4:5
16,5:5
16,6:3
16,9:1
16,10:6
16,11:3
16,12:3
16,13:3
16,14:5
16,15:3
16,17:5
16,23:2
16,24:2
16,25:3
16,26:1
16,27:5
16,29:1
16,30:1
16,31:1
16,32:1
16,37:3
16,39:6
16,43:1
17,10:1
17,39:1
18,1:3
18,2:3
18,3:5
18,4:5
18,5:5
18,6:3
18,9:1
18,10:6
18,11:3
18,12:3
18,13:3
18,14:5
18,15:3
18,17:5
18,23:2
18,24:2
18,25:3
18,26:1
18,27:5
18,29:1
18,30:1
18,31:1
18,32:1
18,37:3
18,39:6
18,43:1
19,1:3
19,2:3
19,3:5
19,4:5
19,5:5
19,6:3
19,9:1
19,10:6
19,11:3
19,12:3
19,13:3
19,14:5
19,15:3
19,17:5
19,23:2
19,24:2
19,25:3
19,26:1
19,27:5
19,29:1
19,30:1
19,31:1
19,32:1
19,37:3
19,39:6
19,43:1
20,10:1
20,35:1
20,39:1
21,1:1
21,2:1
21,3:3
21,4:3
21,5:3
21,6:1
21,10:4
21,11:1
21,12:1
21,13:1
21,14:3
21,15:1
21,17:3
21,20:3
21,25:1
21,27:3
21,33:3
21,35:4
21,36:1
21,37:1
21,39:4
22,10:1
22,35:1
22,39:1
23,1:1
23,2:1
23,3:3
23,4:3
23,5:3
23,6:1
23,10:4
23,11:1
23,12:1
23,13:1
23,14:3
23,15:1
23,17:3
23,20:3
23,22:3
23,25:1
23,27:3
23,28:4
23,37:1
23,39:4
24,1:1
24,2:1
24,3:3
24,4:3
24,5:3
24,6:1
24,10:4
24,11:1
24,12:1
24,13:1
24,14:3
24,15:1
24,17:3
24,20:3
24,22:3
24,25:1
24,27:3
24,28:4
24,37:1
24,39:4
25,3:2
25,4:2
25,5:2
25,10:3
25,14:2
25,17:2
25,20:2
25,22:2
25,27:2
25,28:3
25,33:2
25,35:3
25,39:3
26,1:2
26,2:2
26,3:4
26,4:4
26,5:4
26,6:2
26,10:5
26,11:2
26,12:2
26,13:2
26,14:4
26,15:2
26,17:4
26,20:4
26,21:1
26,22:4
26,23:1
26,24:1
26,25:2
26,27:4
26,28:5
26,33:4
26,35:5
26,36:2
26,37:2
26,39:5
27,10:1
27,39:1
29,1:2
29,2:2
29,3:4
29,4:4
29,5:4
29,6:2
29,10:5
29,11:2
29,12:2
29,13:2
29,14:4
29,15:2
29,17:4
29,20:4
29,21:1
29,22:4
29,23:1
29,24:1
29,25:2
29,27:4
29,28:5
29,33:4
29,35:5
29,36:2
29,37:2
29,38:4
29,39:5
29,40:4
30,1:2
30,2:2
30,3:4
30,4:4
30,5:4
30,6:2
30,10:5
30,11:2
30,12:2
30,13:2
30,14:4
30,15:2
30,17:4
30,20:4
30,21:1
30,22:4
30,23:1
30,24:1
30,25:2
30,27:4
30,28:5
30,33:4
30,35:5
30,36:2
30,37:2
30,38:4
30,39:5
30,40:4
31,1:2
31,2:2
31,3:4
31,4:4
31,5:4
31,6:2
31,10:5
31,11:2
31,12:2
31,13:2
31,14:4
31,15:2
31,17:4
31,20:4
31,21:1
31,22:4
31,23:1
31,24:1
31,25:2
31,27:4
31,28:5
31,33:4
31,35:5
31,36:2
31,37:2
31,38:4
31,39:5
31,40:4
32,1:2
32,2:2
32,3:4
32,4:4
32,5:4
32,6:2
32,10:5
32,11:2
32,12:2
32,13:2
32,14:4
32,15:2
32,17:4
32,20:4
32,21:1
32,22:4
32,23:1
32,24:1
32,25:2
32,27:4
32,28:5
32,33:4
32,35:5
32,36:2
32,37:2
32,38:4
32,39:5
32,40:4
33,10:1
33,28:1
33,39:1
34,1:2
34,2:2
34,3:4
34,4:4
34,5:4
34,6:2
34,10:5
34,11:2
34,12:2
34,13:2
34,14:4
34,15:2
34,17:4
34,20:4
34,21:1
34,22:4
34,23:1
34,24:1
34,25:2
34,27:4
34,28:5
34,33:4
34,35:5
34,36:2
34,37:2
34,39:5
36,3:2
36,4:2
36,5:2
36,10:3
36,14:2
36,17:2
36,20:2
36,22:2
36,27:2
36,28:3
36,33:2
36,35:3
36,39:3
37,3:2
37,4:2
37,5:2
37,10:3
37,14:2
37,17:2
37,20:2
37,22:2
37,27:2
37,28:3
37,33:2
37,35:3
37,38:2
37,39:3
37,40:2
37,41:2
37,42:2
37,44:2
37,45:2
38,10:1
38,28:1
38,35:1
38,39:1
40,10:1
40,28:1
40,35:1
40,39:1
41,10:1
41,28:1
41,35:1
41,39:1
42,10:1
42,28:1
42,35:1
42,39:1
43,1:2
43,2:2
43,3:4
43,4:4
43,5:4
43,6:2
43,10:5
43,11:2
43,12:2
43,13:2
43,14:4
43,15:2
43,17:4
43,20:4
43,21:1
43,22:4
43,23:1
43,24:1
43,25:2
43,27:4
43,28:5
43,33:4
43,35:5
43,36:2
43,37:2
43,38:4
43,39:5
43,40:4
43,41:4
43,42:4
43,44:4
43,45:4
44,10:1
44,28:1
44,35:1
44,39:1
45,10:1
45,28:1
45,35:1
45,39:1

<end>

<optimal SALBP-1 value>
10


<rand seed>
467321153

<Lower Bounds>
Lm1=10
Lms1=10
Lm2=2
Lm3=6
Lm4=10
Best=10

<Optimal Stations (Iterations: 10)>
13
